presolving:
(round 1, fast)       177 del vars, 4418 del conss, 0 add conss, 4358 chg bounds, 0 chg sides, 0 chg coeffs, 0 upgd conss, 0 impls, 7176 clqs
   (0.1s) running MILP presolver
   (0.1s) MILP presolver found nothing
(round 2, exhaustive) 177 del vars, 4418 del conss, 0 add conss, 4358 chg bounds, 0 chg sides, 0 chg coeffs, 7147 upgd conss, 0 impls, 7176 clqs
(round 3, exhaustive) 294 del vars, 4418 del conss, 0 add conss, 4358 chg bounds, 0 chg sides, 0 chg coeffs, 7147 upgd conss, 0 impls, 13962 clqs
(round 4, fast)       294 del vars, 4535 del conss, 0 add conss, 4358 chg bounds, 0 chg sides, 0 chg coeffs, 7147 upgd conss, 0 impls, 13962 clqs
(round 5, exhaustive) 411 del vars, 4535 del conss, 0 add conss, 4358 chg bounds, 0 chg sides, 0 chg coeffs, 7147 upgd conss, 0 impls, 20515 clqs
(round 6, fast)       411 del vars, 4652 del conss, 0 add conss, 4358 chg bounds, 0 chg sides, 0 chg coeffs, 7147 upgd conss, 0 impls, 20515 clqs
(round 7, exhaustive) 528 del vars, 4652 del conss, 0 add conss, 4358 chg bounds, 0 chg sides, 0 chg coeffs, 7147 upgd conss, 0 impls, 26835 clqs
(round 8, fast)       528 del vars, 4769 del conss, 0 add conss, 4358 chg bounds, 0 chg sides, 0 chg coeffs, 7147 upgd conss, 0 impls, 26835 clqs
(round 9, exhaustive) 645 del vars, 4769 del conss, 0 add conss, 4358 chg bounds, 0 chg sides, 0 chg coeffs, 7147 upgd conss, 0 impls, 32922 clqs
(round 10, fast)       645 del vars, 4886 del conss, 0 add conss, 4358 chg bounds, 0 chg sides, 0 chg coeffs, 7147 upgd conss, 0 impls, 32922 clqs
(round 11, exhaustive) 762 del vars, 4886 del conss, 0 add conss, 4358 chg bounds, 0 chg sides, 0 chg coeffs, 7147 upgd conss, 0 impls, 43636 clqs
(round 12, fast)       762 del vars, 5003 del conss, 0 add conss, 4358 chg bounds, 0 chg sides, 0 chg coeffs, 7147 upgd conss, 0 impls, 43636 clqs
(round 13, exhaustive) 879 del vars, 5003 del conss, 0 add conss, 4358 chg bounds, 0 chg sides, 0 chg coeffs, 7147 upgd conss, 0 impls, 43545 clqs
(round 14, fast)       879 del vars, 5120 del conss, 0 add conss, 4358 chg bounds, 0 chg sides, 0 chg coeffs, 7147 upgd conss, 0 impls, 43545 clqs
   (4.4s) probing: 1000/7080 (14.1%) - 0 fixings, 702 aggregations, 2938949 implications, 0 bound changes
   (4.8s) probing: 1115/7080 (15.7%) - 0 fixings, 702 aggregations, 3274052 implications, 0 bound changes
   (4.8s) probing aborted: 1000/1000 successive useless probings
   (4.8s) symmetry computation started: requiring (bin +, int -, cont +), (fixed: bin -, int +, cont -)
   (4.9s) no symmetry present
presolving (15 rounds: 15 fast, 8 medium, 8 exhaustive):
 5060 deleted vars, 5237 deleted constraints, 0 added constraints, 4358 tightened bounds, 0 added holes, 0 changed sides, 0 changed coefficients
 0 implications, 44333 cliques
presolved problem has 6378 variables (6378 bin, 0 int, 0 impl, 0 cont) and 6446 constraints
   6445 constraints of type <setppc>
      1 constraints of type <linear>
Presolving Time: 4.87

 time | node  | left  |LP iter|LP it/n|mem/heur|mdpt |vars |cons |rows |cuts |sepa|confs|strbr|  dualbound   | primalbound  |  gap   | compl. 
p 5.0s|     1 |     0 |     0 |     - |  clique|   0 |6378 |6446 |6446 |   0 |  0 |   0 |   0 |-2.251167e+05 |-2.801176e+05 |  24.43%| unknown
  5.4s|     1 |     0 |  4796 |     - |   143M |   0 |6378 |6447 |6446 |   0 |  0 |   7 |   0 |-2.659045e+05 |-2.801176e+05 |   5.35%| unknown
  6.9s|     1 |     0 |  5395 |     - |   150M |   0 |6378 |6447 |6448 |   2 |  1 |   7 |   0 |-2.659593e+05 |-2.801176e+05 |   5.32%| unknown
  8.6s|     1 |     0 |  7351 |     - |   155M |   0 |6378 |6447 |6451 |   5 |  2 |   7 |   0 |-2.661506e+05 |-2.801176e+05 |   5.25%| unknown
  9.1s|     1 |     0 |  8233 |     - |   156M |   0 |6378 |6447 |6454 |   8 |  3 |   7 |   0 |-2.661984e+05 |-2.801176e+05 |   5.23%| unknown
  9.8s|     1 |     0 |  9041 |     - |   158M |   0 |6378 |6447 |6456 |  10 |  4 |   7 |   0 |-2.662426e+05 |-2.801176e+05 |   5.21%| unknown
 10.3s|     1 |     0 |  9431 |     - |   159M |   0 |6378 |6447 |6458 |  12 |  5 |   7 |   0 |-2.662526e+05 |-2.801176e+05 |   5.21%| unknown
 10.8s|     1 |     0 |  9439 |     - |   160M |   0 |6378 |6447 |6459 |  13 |  6 |   7 |   0 |-2.662526e+05 |-2.801176e+05 |   5.21%| unknown
 11.4s|     1 |     0 |  9649 |     - |   161M |   0 |6378 |6447 |6460 |  14 |  7 |   7 |   0 |-2.662623e+05 |-2.801176e+05 |   5.20%| unknown
 12.0s|     1 |     0 |  9985 |     - |   162M |   0 |6378 |6448 |6461 |  15 |  8 |   8 |   0 |-2.662703e+05 |-2.801176e+05 |   5.20%| unknown
 12.7s|     1 |     0 | 10456 |     - |   162M |   0 |6378 |6448 |6462 |  16 |  9 |   8 |   0 |-2.662807e+05 |-2.801176e+05 |   5.20%| unknown
 13.4s|     1 |     0 | 10905 |     - |   163M |   0 |6378 |6448 |6464 |  18 | 10 |   8 |   0 |-2.662940e+05 |-2.801176e+05 |   5.19%| unknown
 13.8s|     1 |     0 | 11461 |     - |   166M |   0 |6378 |6448 |6465 |  19 | 11 |   8 |   0 |-2.663058e+05 |-2.801176e+05 |   5.19%| unknown
 14.3s|     1 |     0 | 11811 |     - |   166M |   0 |6378 |6450 |6466 |  20 | 12 |  10 |   0 |-2.663135e+05 |-2.801176e+05 |   5.18%| unknown
 14.5s|     1 |     0 | 11848 |     - |   167M |   0 |6378 |6450 |6467 |  21 | 13 |  10 |   0 |-2.663136e+05 |-2.801176e+05 |   5.18%| unknown
 time | node  | left  |LP iter|LP it/n|mem/heur|mdpt |vars |cons |rows |cuts |sepa|confs|strbr|  dualbound   | primalbound  |  gap   | compl. 
 14.9s|     1 |     0 | 12036 |     - |   168M |   0 |6378 |6451 |6468 |  22 | 14 |  11 |   0 |-2.663150e+05 |-2.801176e+05 |   5.18%| unknown
 15.3s|     1 |     0 | 12547 |     - |   169M |   0 |6378 |6451 |6469 |  23 | 15 |  11 |   0 |-2.663230e+05 |-2.801176e+05 |   5.18%| unknown
 15.7s|     1 |     0 | 12728 |     - |   170M |   0 |6378 |6451 |6465 |  24 | 16 |  11 |   0 |-2.663264e+05 |-2.801176e+05 |   5.18%| unknown
 16.2s|     1 |     0 | 13202 |     - |   171M |   0 |6378 |6451 |6466 |  25 | 17 |  11 |   0 |-2.663339e+05 |-2.801176e+05 |   5.18%| unknown
 16.5s|     1 |     0 | 13534 |     - |   171M |   0 |6378 |6451 |6467 |  26 | 18 |  11 |   0 |-2.663427e+05 |-2.801176e+05 |   5.17%| unknown
 17.0s|     1 |     0 | 14072 |     - |   171M |   0 |6378 |6451 |6468 |  27 | 19 |  11 |   0 |-2.663511e+05 |-2.801176e+05 |   5.17%| unknown
 17.5s|     1 |     0 | 14748 |     - |   171M |   0 |6378 |6451 |6469 |  28 | 20 |  11 |   0 |-2.663668e+05 |-2.801176e+05 |   5.16%| unknown
 30.4s|     1 |     2 | 45137 |     - |   173M |   0 |6378 |6466 |6469 |  28 | 22 |  26 |  21 |-2.664300e+05 |-2.801176e+05 |   5.14%| unknown
*35.8s|     3 |     2 | 48736 |17051.5 |    LP  |   2 |6378 |6466 |6464 |  28 |  1 |  26 |  42 |-2.664752e+05 |-2.711856e+05 |   1.77%| unknown
 81.6s|   100 |    19 |116762 |1031.6 |   177M |  59 |6378 |6348 |6476 |  40 |  0 |  26 | 220 |-2.679905e+05 |-2.711856e+05 |   1.19%|  63.55%

SCIP Status        : problem is solved [optimal solution found]
Solving Time (sec) : 89.95
Solving Nodes      : 195
Primal Bound       : -2.71185562672947e+05 (3 solutions)
Dual Bound         : -2.71185562672947e+05
Gap                : 0.00 %
Solve Status: optimal
Solve Time: 89.96 seconds
Objective Value: -271185.56
